100 36 100
98 90 31 34 91 45 73 21 12 99 71 28 83 70 14 46 23 47 72 78 10 70 56 88 73 63 55 31 65 35 81 65 78 64 99 69 10 73 42 22 24 65 3 59 35 17 5 11 64 77 41 27 99 98 67 25 61 22 8 26 57 42 43 87 6 43 9 68 68 51 91 44 17 46 3 4 63 61 67 79 38 9 6 90 59 73 67 20 47 75 98 57 69 41 44 76 84 53 44 4 
